\ LP format - for model browsing. Use MPS format to capture full model detail.
Minimize
  y
Subject To
 c1: x1 + 17 r1 <= 29
 c2: - y + y1 <= -18
 c3: x2 + 29 r2 <= 29
 c4: - y + y2 <= -30
 c5: x3 + 21 r3 <= 29
 c6: - y + y3 <= -22
 c7: x4 + 24 r4 <= 29
 c8: - y + y4 <= -25
 c9: x5 + 2.147483648e+09 r5 <= -2.147483618e+09
 c10: - y + y5 <= 0
 c11: x1 + 17 r1 - 30 p12 - 30 q12 - x2 <= -1
 c12: - 17 r1 + y1 - 30 p12 + 30 q12 - y2 <= 12
 c13: x1 - 30 p12 + 30 q12 - x2 - 29 r2 >= -29
 c14: y1 - 30 p12 - 30 q12 + 29 r2 - y2 >= -30
 c15: x1 + 17 r1 - 30 p13 - 30 q13 - x3 <= -1
 c16: - 17 r1 + y1 - 30 p13 + 30 q13 - y3 <= 12
 c17: x1 - 30 p13 + 30 q13 - x3 - 21 r3 >= -29
 c18: y1 - 30 p13 - 30 q13 + 21 r3 - y3 >= -38
 c19: x1 + 17 r1 - 30 p14 - 30 q14 - x4 <= -1
 c20: - 17 r1 + y1 - 30 p14 + 30 q14 - y4 <= 12
 c21: x1 - 30 p14 + 30 q14 - x4 - 24 r4 >= -29
 c22: y1 - 30 p14 - 30 q14 + 24 r4 - y4 >= -35
 c23: x1 + 17 r1 - 30 p15 - 30 q15 - x5 <= -1
 c24: - 17 r1 + y1 - 30 p15 + 30 q15 - y5 <= 12
 c25: x1 - 30 p15 + 30 q15 - x5 - 2.147483648e+09 r5 >= 2.147483618e+09
 c26: y1 - 30 p15 - 30 q15 + 2.147483648e+09 r5 - y5 >= -60
 c27: x2 + 29 r2 - 30 p23 - 30 q23 - x3 <= -1
 c28: - 29 r2 + y2 - 30 p23 + 30 q23 - y3 <= 0
 c29: x2 - 30 p23 + 30 q23 - x3 - 21 r3 >= -29
 c30: y2 - 30 p23 - 30 q23 + 21 r3 - y3 >= -38
 c31: x2 + 29 r2 - 30 p24 - 30 q24 - x4 <= -1
 c32: - 29 r2 + y2 - 30 p24 + 30 q24 - y4 <= 0
 c33: x2 - 30 p24 + 30 q24 - x4 - 24 r4 >= -29
 c34: y2 - 30 p24 - 30 q24 + 24 r4 - y4 >= -35
 c35: x2 + 29 r2 - 30 p25 - 30 q25 - x5 <= -1
 c36: - 29 r2 + y2 - 30 p25 + 30 q25 - y5 <= 0
 c37: x2 - 30 p25 + 30 q25 - x5 - 2.147483648e+09 r5 >= 2.147483618e+09
 c38: y2 - 30 p25 - 30 q25 + 2.147483648e+09 r5 - y5 >= -60
 c39: x3 + 21 r3 - 30 p34 - 30 q34 - x4 <= -1
 c40: - 21 r3 + y3 - 30 p34 + 30 q34 - y4 <= 8
 c41: x3 - 30 p34 + 30 q34 - x4 - 24 r4 >= -29
 c42: y3 - 30 p34 - 30 q34 + 24 r4 - y4 >= -35
 c43: x3 + 21 r3 - 30 p35 - 30 q35 - x5 <= -1
 c44: - 21 r3 + y3 - 30 p35 + 30 q35 - y5 <= 8
 c45: x3 - 30 p35 + 30 q35 - x5 - 2.147483648e+09 r5 >= 2.147483618e+09
 c46: y3 - 30 p35 - 30 q35 + 2.147483648e+09 r5 - y5 >= -60
 c47: x4 + 24 r4 - 30 p45 - 30 q45 - x5 <= -1
 c48: - 24 r4 + y4 - 30 p45 + 30 q45 - y5 <= 5
 c49: x4 - 30 p45 + 30 q45 - x5 - 2.147483648e+09 r5 >= 2.147483618e+09
 c50: y4 - 30 p45 - 30 q45 + 2.147483648e+09 r5 - y5 >= -60
Bounds
 r1 <= 1
 r2 <= 1
 r3 <= 1
 r4 <= 1
 r5 <= 1
Binaries
 p12 q12 p13 q13 p14 q14 p15 q15 p23 q23 p24 q24 p25 q25 p34 q34 p35 q35
 p45 q45
Generals
 x1 r1 y1 x2 r2 y2 x3 r3 y3 x4 r4 y4 x5 r5 y5
End
